p cnf 127 353
e 1 2 0
a 3 4 0
e 5 6 0
a 7 8 0
e 9 10 11 12 13 14 15 16 0
e 17 18 19 20 21 22 23 24 25 26 27 28 29 30 31 32 33 34 35 36 37 38 39 40 41 42 43 44 45 46 47 48 49 50 51 52 53 54 55 56 57 58 59 60 61 62 63 64 65 66 67 68 69 70 71 72 73 74 75 76 77 78 79 80 81 82 83 84 85 86 87 88 89 90 91 92 93 94 95 96 97 98 99 100 101 102 103 104 105 106 107 108 109 110 111 112 113 114 115 116 117 118 119 120 121 122 123 124 125 126 127 0
5 17 0
-3 17 0
-5 3 -17 0
3 18 0
-5 18 0
-3 5 -18 0
17 -19 0
18 -19 0
-17 -18 19 0
6 20 0
-4 20 0
-6 4 -20 0
4 21 0
-6 21 0
-4 6 -21 0
20 -22 0
21 -22 0
-20 -21 22 0
19 -23 0
22 -23 0
-19 -22 23 0
9 24 0
-3 24 0
-9 3 -24 0
3 25 0
-9 25 0
-3 9 -25 0
24 -26 0
25 -26 0
-24 -25 26 0
10 27 0
-4 27 0
-10 4 -27 0
4 28 0
-10 28 0
-4 10 -28 0
27 -29 0
28 -29 0
-27 -28 29 0
26 -30 0
29 -30 0
-26 -29 30 0
9 31 0
-7 31 0
-9 7 -31 0
7 32 0
-9 32 0
-7 9 -32 0
31 -33 0
32 -33 0
-31 -32 33 0
10 34 0
-8 34 0
-10 8 -34 0
8 35 0
-10 35 0
-8 10 -35 0
34 -36 0
35 -36 0
-34 -35 36 0
33 -37 0
36 -37 0
-33 -36 37 0
11 38 0
-1 38 0
-11 1 -38 0
1 39 0
-11 39 0
-1 11 -39 0
38 -40 0
39 -40 0
-38 -39 40 0
12 41 0
-2 41 0
-12 2 -41 0
2 42 0
-12 42 0
-2 12 -42 0
41 -43 0
42 -43 0
-41 -42 43 0
40 -44 0
43 -44 0
-40 -43 44 0
11 45 0
-5 45 0
-11 5 -45 0
5 46 0
-11 46 0
-5 11 -46 0
45 -47 0
46 -47 0
-45 -46 47 0
12 48 0
-6 48 0
-12 6 -48 0
6 49 0
-12 49 0
-6 12 -49 0
48 -50 0
49 -50 0
-48 -49 50 0
47 -51 0
50 -51 0
-47 -50 51 0
11 52 0
-9 52 0
-11 9 -52 0
9 53 0
-11 53 0
-9 11 -53 0
52 -54 0
53 -54 0
-52 -53 54 0
12 55 0
-10 55 0
-12 10 -55 0
10 56 0
-12 56 0
-10 12 -56 0
55 -57 0
56 -57 0
-55 -56 57 0
54 -58 0
57 -58 0
-54 -57 58 0
-44 59 0
-51 59 0
-58 59 0
44 51 58 -59 0
13 60 0
-1 60 0
-13 1 -60 0
1 61 0
-13 61 0
-1 13 -61 0
60 -62 0
61 -62 0
-60 -61 62 0
14 63 0
-2 63 0
-14 2 -63 0
2 64 0
-14 64 0
-2 14 -64 0
63 -65 0
64 -65 0
-63 -64 65 0
62 -66 0
65 -66 0
-62 -65 66 0
13 67 0
-5 67 0
-13 5 -67 0
5 68 0
-13 68 0
-5 13 -68 0
67 -69 0
68 -69 0
-67 -68 69 0
14 70 0
-6 70 0
-14 6 -70 0
6 71 0
-14 71 0
-6 14 -71 0
70 -72 0
71 -72 0
-70 -71 72 0
69 -73 0
72 -73 0
-69 -72 73 0
13 74 0
-9 74 0
-13 9 -74 0
9 75 0
-13 75 0
-9 13 -75 0
74 -76 0
75 -76 0
-74 -75 76 0
14 77 0
-10 77 0
-14 10 -77 0
10 78 0
-14 78 0
-10 14 -78 0
77 -79 0
78 -79 0
-77 -78 79 0
76 -80 0
79 -80 0
-76 -79 80 0
-66 81 0
-73 81 0
-80 81 0
66 73 80 -81 0
15 82 0
-1 82 0
-15 1 -82 0
1 83 0
-15 83 0
-1 15 -83 0
82 -84 0
83 -84 0
-82 -83 84 0
16 85 0
-2 85 0
-16 2 -85 0
2 86 0
-16 86 0
-2 16 -86 0
85 -87 0
86 -87 0
-85 -86 87 0
84 -88 0
87 -88 0
-84 -87 88 0
15 89 0
-5 89 0
-15 5 -89 0
5 90 0
-15 90 0
-5 15 -90 0
89 -91 0
90 -91 0
-89 -90 91 0
16 92 0
-6 92 0
-16 6 -92 0
6 93 0
-16 93 0
-6 16 -93 0
92 -94 0
93 -94 0
-92 -93 94 0
91 -95 0
94 -95 0
-91 -94 95 0
15 96 0
-9 96 0
-15 9 -96 0
9 97 0
-15 97 0
-9 15 -97 0
96 -98 0
97 -98 0
-96 -97 98 0
16 99 0
-10 99 0
-16 10 -99 0
10 100 0
-16 100 0
-10 16 -100 0
99 -101 0
100 -101 0
-99 -100 101 0
98 -102 0
101 -102 0
-98 -101 102 0
-88 103 0
-95 103 0
-102 103 0
88 95 102 -103 0
-11 -104 0
-12 -104 0
11 12 104 0
-13 -105 0
14 -105 0
13 -14 105 0
104 106 0
-105 106 0
-104 105 -106 0
-11 -107 0
12 -107 0
11 -12 107 0
13 -108 0
14 -108 0
-13 -14 108 0
13 -109 0
-14 -109 0
-13 14 109 0
-13 -110 0
-14 -110 0
13 14 110 0
-108 111 0
-109 111 0
-110 111 0
108 109 110 -111 0
107 112 0
-111 112 0
-107 111 -112 0
11 -113 0
-12 -113 0
-11 12 113 0
113 114 0
-109 114 0
-113 109 -114 0
11 -115 0
12 -115 0
-11 -12 115 0
115 116 0
-108 116 0
-115 108 -116 0
-15 -117 0
16 -117 0
15 -16 117 0
110 118 0
-117 118 0
-110 117 -118 0
15 -119 0
16 -119 0
-15 -16 119 0
15 -120 0
-16 -120 0
-15 16 120 0
-15 -121 0
-16 -121 0
15 16 121 0
-119 122 0
-120 122 0
-121 122 0
119 120 121 -122 0
105 123 0
-122 123 0
-105 122 -123 0
109 124 0
-120 124 0
-109 120 -124 0
108 125 0
-119 125 0
-108 119 -125 0
-120 126 0
-119 126 0
120 119 -126 0
-23 -127 0
-30 -127 0
-37 -127 0
59 -127 0
81 -127 0
103 -127 0
104 -127 0
106 -127 0
112 -127 0
114 -127 0
116 -127 0
118 -127 0
123 -127 0
124 -127 0
125 -127 0
126 -127 0
23 30 37 -59 -81 -103 -104 -106 -112 -114 -116 -118 -123 -124 -125 -126 127 0
127 0

